50
2246

375 458
179 709
870 913
44 886
297 261
423 101
365 497
990 154
294 109
645 758
683 442
677 231
231 962
311 879
451 530
424 870
579 548
349 253
487 303
362 668
421 799
804 428
349 377
263 41
42 10
116 187
985 790
951 588
601 161
521 660
558 583
936 594
3 302
561 70
642 778
254 67
636 642
496 458
887 280
643 362
150 358
792 972
842 935
985 546
47 693
418 662
585 454
168 732
169 786
853 920
